\* lyc *\
Maximize
OBJ: a_305
Subject To
_C1: a_1 = 0.0434782608696
_C10: a_10 = 0.0434782608696
_C100: a_106 = 0.0434782608696
_C101: a_107 = 0.0434782608696
_C102: a_108 = 0.0434782608696
_C103: a_109 = 0.0434782608696
_C104: a_110 = 0.0434782608696
_C105: a_111 = 0.0434782608696
_C106: a_112 = 0.0434782608696
_C107: a_113 = 0.0434782608696
_C108: a_114 = 0.0434782608696
_C109: a_115 = 0.0434782608696
_C11: a_11 = 0.0434782608696
_C110: a_116 = 0.0434782608696
_C111: a_117 = 0.0434782608696
_C112: a_119 = 0.0434782608696
_C113: a_120 = 0.0434782608696
_C114: a_121 = 0.0434782608696
_C115: a_122 = 0.0434782608696
_C116: a_123 = 0.0434782608696
_C117: a_124 = 0.0434782608696
_C118: a_125 = 0.0434782608696
_C119: a_127 = 0.0434782608696
_C12: a_12 = 0.0434782608696
_C120: a_128 = 0.0434782608696
_C121: a_129 = 0.0434782608696
_C122: a_130 = 0.0434782608696
_C123: a_131 = 0.0434782608696
_C124: a_132 = 0.0434782608696
_C125: a_133 = 0.0434782608696
_C126: a_135 = 0.0434782608696
_C127: a_136 = 0.0434782608696
_C128: a_137 = 0.0434782608696
_C129: a_138 = 0.0434782608696
_C13: a_13 = 0.0434782608696
_C130: a_139 = 0.0434782608696
_C131: a_140 = 0.0434782608696
_C132: a_141 = 0.0434782608696
_C133: a_142 = 0.0434782608696
_C134: a_143 = 0.0434782608696
_C135: a_144 = 0.0434782608696
_C136: a_145 = 0.0434782608696
_C137: a_146 = 0.0434782608696
_C138: a_147 = 0.0434782608696
_C139: a_148 = 0.0434782608696
_C14: a_14 = 0.0434782608696
_C140: a_149 = 0.0434782608696
_C141: a_150 = 0.0434782608696
_C142: a_151 = 0.0434782608696
_C143: a_152 = 0.0434782608696
_C144: a_153 = 0.0434782608696
_C145: a_154 = 0.0434782608696
_C146: a_156 = 0.0434782608696
_C147: a_157 = 0.0434782608696
_C148: a_158 = 0.0434782608696
_C149: a_159 = 0.0434782608696
_C15: a_15 = 0.0434782608696
_C150: a_160 = 0.0434782608696
_C151: a_161 = 0.0434782608696
_C152: a_162 = 0.0434782608696
_C153: a_163 = 0.0434782608696
_C154: a_164 = 0.0434782608696
_C155: a_165 = 0.0434782608696
_C156: a_166 = 0.0434782608696
_C157: a_167 = 0.0434782608696
_C158: a_168 = 0.0434782608696
_C159: a_169 = 0.0434782608696
_C16: a_16 = 0.0434782608696
_C160: a_170 = 0.0434782608696
_C161: a_171 = 0.0434782608696
_C162: a_172 = 0.0434782608696
_C163: a_173 = 0.0434782608696
_C164: a_175 = 0.0434782608696
_C165: a_176 = 0.0434782608696
_C166: a_177 = 0.0434782608696
_C167: a_178 = 0.0434782608696
_C168: a_179 = 0.0434782608696
_C169: a_180 = 0.0434782608696
_C17: a_17 = 0.0434782608696
_C170: a_181 = 0.0434782608696
_C171: a_182 = 0.0434782608696
_C172: a_183 = 0.0434782608696
_C173: a_184 = 0.0434782608696
_C174: a_185 = 0.0434782608696
_C175: a_186 = 0.0434782608696
_C176: a_187 = 0.0434782608696
_C177: a_188 = 0.0434782608696
_C178: a_189 = 0.0434782608696
_C179: a_190 = 0.0434782608696
_C18: a_18 = 0.0434782608696
_C180: a_191 = 0.0434782608696
_C181: a_192 = 0.0434782608696
_C182: a_193 = 0.0434782608696
_C183: a_195 = 0.0434782608696
_C184: a_196 = 0.0434782608696
_C185: a_197 = 0.0434782608696
_C186: a_198 = 0.0434782608696
_C187: a_199 = 0.0434782608696
_C188: a_200 = 0.0434782608696
_C189: a_201 = 0.0434782608696
_C19: a_19 = 0.0434782608696
_C190: a_202 = 0.0434782608696
_C191: a_203 = 0.0434782608696
_C192: a_204 = 0.0434782608696
_C193: a_205 = 0.0434782608696
_C194: a_206 = 0.0434782608696
_C195: a_207 = 0.0434782608696
_C196: a_208 = 0.0434782608696
_C197: a_209 = 0.0434782608696
_C198: a_210 = 0.0434782608696
_C199: a_211 = 0.0434782608696
_C2: a_2 = 0.0434782608696
_C20: a_20 = 0.0434782608696
_C200: a_212 = 0.0434782608696
_C201: a_214 = 0.0434782608696
_C202: a_215 = 0.0434782608696
_C203: a_216 = 0.0434782608696
_C204: a_218 = 0.0434782608696
_C205: a_219 = 0.0434782608696
_C206: a_220 = 0.0434782608696
_C207: a_221 = 0.0434782608696
_C208: a_222 = 0.0434782608696
_C209: a_223 = 0.0434782608696
_C21: a_21 = 0.0434782608696
_C210: a_224 = 0.0434782608696
_C211: a_225 = 0.0434782608696
_C212: a_226 = 0.0434782608696
_C213: a_227 = 0.0434782608696
_C214: a_228 = 0.0434782608696
_C215: a_229 = 0.0434782608696
_C216: a_230 = 0.0434782608696
_C217: a_231 = 0.0434782608696
_C218: a_232 = 0.0434782608696
_C219: a_233 = 0.0434782608696
_C22: a_23 = 0.0434782608696
_C220: a_234 = 0.0434782608696
_C221: a_235 = 0.0434782608696
_C222: a_236 = 0.0434782608696
_C223: a_237 = 0.0434782608696
_C224: a_239 = 0.0434782608696
_C225: a_241 = 0.0434782608696
_C226: a_242 = 0.0434782608696
_C227: a_243 = 0.0434782608696
_C228: a_244 = 0.0434782608696
_C229: a_245 = 0.0434782608696
_C23: a_24 = 0.0434782608696
_C230: a_246 = 0.0434782608696
_C231: a_247 = 0.0434782608696
_C232: a_248 = 0.0434782608696
_C233: a_249 = 0.0434782608696
_C234: a_250 = 0.0434782608696
_C235: a_251 = 0.0434782608696
_C236: a_252 = 0.0434782608696
_C237: a_253 = 0.0434782608696
_C238: a_254 = 0.0434782608696
_C239: a_255 = 0.0434782608696
_C24: a_25 = 0.0434782608696
_C240: a_256 = 0.0434782608696
_C241: a_257 = 0.0434782608696
_C242: a_259 = 0.0434782608696
_C243: a_260 = 0.0434782608696
_C244: a_261 = 0.0434782608696
_C245: a_262 = 0.0434782608696
_C246: a_263 = 0.0434782608696
_C247: 37 a_0 - b_0_0 = 36
_C248: a_0 - a_305 >= 0
_C249: a_1 - b_0_1 = 0
_C25: a_26 = 0.0434782608696
_C250: a_2 - b_0_2 = 0
_C251: a_3 - b_0_3 = 0
_C252: a_4 - b_0_4 = 0
_C253: a_5 - b_0_5 = 0
_C254: a_6 - b_0_6 = 0
_C255: a_7 - b_0_7 = 0
_C256: a_8 - b_0_8 = 0
_C257: a_9 - b_0_9 = 0
_C258: a_10 - b_0_10 = 0
_C259: a_11 - b_0_11 = 0
_C26: a_27 = 0.0434782608696
_C260: a_12 - b_0_12 = 0
_C261: a_13 - b_0_13 = 0
_C262: a_14 - b_0_14 = 0
_C263: a_15 - b_0_15 = 0
_C264: a_16 - b_0_16 = 0
_C265: a_17 - b_0_17 = 0
_C266: a_18 - b_0_18 = 0
_C267: a_19 - b_0_19 = 0
_C268: a_20 - b_0_20 = 0
_C269: a_21 - b_0_21 = 0
_C27: a_28 = 0.0434782608696
_C270: 37 a_22 - b_1_22 = 36
_C271: a_22 - a_305 >= 0
_C272: a_23 - b_1_23 = 0
_C273: a_24 - b_1_24 = 0
_C274: a_25 - b_1_25 = 0
_C275: a_26 - b_1_26 = 0
_C276: a_27 - b_1_27 = 0
_C277: a_28 - b_1_28 = 0
_C278: a_29 - b_1_29 = 0
_C279: a_30 - b_1_30 = 0
_C28: a_29 = 0.0434782608696
_C280: a_31 - b_1_31 = 0
_C281: a_32 - b_1_32 = 0
_C282: a_33 - b_1_33 = 0
_C283: a_34 - b_1_34 = 0
_C284: a_35 - b_1_35 = 0
_C285: a_36 - b_1_36 = 0
_C286: a_37 - b_1_37 = 0
_C287: a_38 - b_1_38 = 0
_C288: a_39 - b_1_39 = 0
_C289: a_40 - b_1_40 = 0
_C29: a_30 = 0.0434782608696
_C290: a_41 - b_1_41 = 0
_C291: a_42 - b_1_42 = 0
_C292: a_43 - b_1_43 = 0
_C293: a_44 - b_1_44 = 0
_C294: a_45 - b_1_45 = 0
_C295: - a_305 + a_45 >= 0
_C296: 37 a_46 - b_34_46 = 36
_C297: - a_305 + a_46 >= 0
_C298: a_47 - b_34_47 = 0
_C299: a_48 - b_34_48 = 0
_C3: a_3 = 0.0434782608696
_C30: a_31 = 0.0434782608696
_C300: a_49 - b_34_49 = 0
_C301: a_50 - b_34_50 = 0
_C302: a_51 - b_34_51 = 0
_C303: a_52 - b_34_52 = 0
_C304: a_53 - b_34_53 = 0
_C305: a_54 - b_34_54 = 0
_C306: a_55 - b_34_55 = 0
_C307: a_56 - b_34_56 = 0
_C308: a_57 - b_34_57 = 0
_C309: a_58 - b_34_58 = 0
_C31: a_32 = 0.0434782608696
_C310: a_59 - b_34_59 = 0
_C311: a_60 - b_34_60 = 0
_C312: a_61 - b_34_61 = 0
_C313: a_62 - b_34_62 = 0
_C314: a_63 - b_34_63 = 0
_C315: a_64 - b_34_64 = 0
_C316: a_65 - b_34_65 = 0
_C317: a_66 - b_34_66 = 0
_C318: 37 a_67 - b_75_67 = 36
_C319: - a_305 + a_67 >= 0
_C32: a_33 = 0.0434782608696
_C320: a_68 - b_75_68 = 0
_C321: a_69 - b_75_69 = 0
_C322: a_70 - b_75_70 = 0
_C323: a_71 - b_75_71 = 0
_C324: a_72 - b_75_72 = 0
_C325: a_73 - b_75_73 = 0
_C326: a_74 - b_75_74 = 0
_C327: a_75 - b_75_75 = 0
_C328: a_76 - b_75_76 = 0
_C329: a_77 - b_75_77 = 0
_C33: a_34 = 0.0434782608696
_C330: a_78 - b_75_78 = 0
_C331: a_79 - b_75_79 = 0
_C332: a_80 - b_75_80 = 0
_C333: a_81 - b_75_81 = 0
_C334: a_82 - b_75_82 = 0
_C335: a_83 - b_75_83 = 0
_C336: a_84 - b_75_84 = 0
_C337: a_85 - b_75_85 = 0
_C338: a_86 - b_75_86 = 0
_C339: 37 a_87 - b_68_87 = 36
_C34: a_35 = 0.0434782608696
_C340: - a_305 + a_87 >= 0
_C341: a_88 - b_68_88 = 0
_C342: a_89 - b_68_89 = 0
_C343: a_90 - b_68_90 = 0
_C344: a_91 - b_68_91 = 0
_C345: a_92 - b_68_92 = 0
_C346: a_93 - b_68_93 = 0
_C347: a_94 - b_68_94 = 0
_C348: a_95 - b_68_95 = 0
_C349: a_96 - b_68_96 = 0
_C35: a_36 = 0.0434782608696
_C350: a_97 - b_68_97 = 0
_C351: a_98 - b_68_98 = 0
_C352: 37 a_99 - b_65_99 = 36
_C353: - a_305 + a_99 >= 0
_C354: a_100 - b_65_100 = 0
_C355: a_101 - b_65_101 = 0
_C356: a_102 - b_65_102 = 0
_C357: a_103 - b_65_103 = 0
_C358: a_104 - b_65_104 = 0
_C359: a_105 - b_65_105 = 0
_C36: a_37 = 0.0434782608696
_C360: a_106 - b_65_106 = 0
_C361: a_107 - b_65_107 = 0
_C362: a_108 - b_65_108 = 0
_C363: a_109 - b_65_109 = 0
_C364: a_110 - b_65_110 = 0
_C365: a_111 - b_65_111 = 0
_C366: a_112 - b_65_112 = 0
_C367: a_113 - b_65_113 = 0
_C368: a_114 - b_65_114 = 0
_C369: a_115 - b_65_115 = 0
_C37: a_38 = 0.0434782608696
_C370: a_116 - b_65_116 = 0
_C371: a_117 - b_65_117 = 0
_C372: 37 a_118 - b_32_118 = 36
_C373: a_118 - a_305 >= 0
_C374: a_119 - b_32_119 = 0
_C375: a_120 - b_32_120 = 0
_C376: a_121 - b_32_121 = 0
_C377: a_122 - b_32_122 = 0
_C378: a_123 - b_32_123 = 0
_C379: a_124 - b_32_124 = 0
_C38: a_39 = 0.0434782608696
_C380: a_125 - b_32_125 = 0
_C381: 37 a_126 - b_41_126 = 36
_C382: a_126 - a_305 >= 0
_C383: a_127 - b_41_127 = 0
_C384: a_128 - b_41_128 = 0
_C385: a_129 - b_41_129 = 0
_C386: a_130 - b_41_130 = 0
_C387: a_131 - b_41_131 = 0
_C388: a_132 - b_41_132 = 0
_C389: a_133 - b_41_133 = 0
_C39: a_40 = 0.0434782608696
_C390: 37 a_134 - b_55_134 = 36
_C391: a_134 - a_305 >= 0
_C392: a_135 - b_55_135 = 0
_C393: a_136 - b_55_136 = 0
_C394: a_137 - b_55_137 = 0
_C395: a_138 - b_55_138 = 0
_C396: a_139 - b_55_139 = 0
_C397: a_140 - b_55_140 = 0
_C398: a_141 - b_55_141 = 0
_C399: a_142 - b_55_142 = 0
_C4: a_4 = 0.0434782608696
_C40: a_41 = 0.0434782608696
_C400: a_143 - b_55_143 = 0
_C401: a_144 - b_55_144 = 0
_C402: a_145 - b_55_145 = 0
_C403: a_146 - b_55_146 = 0
_C404: a_147 - b_55_147 = 0
_C405: a_148 - b_55_148 = 0
_C406: a_149 - b_55_149 = 0
_C407: a_150 - b_55_150 = 0
_C408: a_151 - b_55_151 = 0
_C409: a_152 - b_55_152 = 0
_C41: a_42 = 0.0434782608696
_C410: a_153 - b_55_153 = 0
_C411: a_154 - b_55_154 = 0
_C412: 37 a_155 - b_44_155 = 36
_C413: a_155 - a_305 >= 0
_C414: a_156 - b_44_156 = 0
_C415: a_157 - b_44_157 = 0
_C416: a_158 - b_44_158 = 0
_C417: a_159 - b_44_159 = 0
_C418: a_160 - b_44_160 = 0
_C419: a_161 - b_44_161 = 0
_C42: a_43 = 0.0434782608696
_C420: a_162 - b_44_162 = 0
_C421: a_163 - b_44_163 = 0
_C422: a_164 - b_44_164 = 0
_C423: a_165 - b_44_165 = 0
_C424: a_166 - b_44_166 = 0
_C425: a_167 - b_44_167 = 0
_C426: a_168 - b_44_168 = 0
_C427: a_169 - b_44_169 = 0
_C428: a_170 - b_44_170 = 0
_C429: a_171 - b_44_171 = 0
_C43: a_44 = 0.0434782608696
_C430: a_172 - b_44_172 = 0
_C431: a_173 - b_44_173 = 0
_C432: 37 a_174 - b_78_174 = 36
_C433: a_174 - a_305 >= 0
_C434: a_175 - b_78_175 = 0
_C435: a_176 - b_78_176 = 0
_C436: a_177 - b_78_177 = 0
_C437: a_178 - b_78_178 = 0
_C438: a_179 - b_78_179 = 0
_C439: a_180 - b_78_180 = 0
_C44: a_47 = 0.0434782608696
_C440: a_181 - b_78_181 = 0
_C441: a_182 - b_78_182 = 0
_C442: a_183 - b_78_183 = 0
_C443: a_184 - b_78_184 = 0
_C444: a_185 - b_78_185 = 0
_C445: a_186 - b_78_186 = 0
_C446: a_187 - b_78_187 = 0
_C447: a_188 - b_78_188 = 0
_C448: a_189 - b_78_189 = 0
_C449: a_190 - b_78_190 = 0
_C45: a_48 = 0.0434782608696
_C450: a_191 - b_78_191 = 0
_C451: a_192 - b_78_192 = 0
_C452: a_193 - b_78_193 = 0
_C453: 37 a_194 - b_51_194 = 36
_C454: a_194 - a_305 >= 0
_C455: a_195 - b_51_195 = 0
_C456: a_196 - b_51_196 = 0
_C457: a_197 - b_51_197 = 0
_C458: a_198 - b_51_198 = 0
_C459: a_199 - b_51_199 = 0
_C46: a_49 = 0.0434782608696
_C460: a_200 - b_51_200 = 0
_C461: a_201 - b_51_201 = 0
_C462: a_202 - b_51_202 = 0
_C463: a_203 - b_51_203 = 0
_C464: a_204 - b_51_204 = 0
_C465: a_205 - b_51_205 = 0
_C466: a_206 - b_51_206 = 0
_C467: a_207 - b_51_207 = 0
_C468: a_208 - b_51_208 = 0
_C469: a_209 - b_51_209 = 0
_C47: a_50 = 0.0434782608696
_C470: a_210 - b_51_210 = 0
_C471: a_211 - b_51_211 = 0
_C472: a_212 - b_51_212 = 0
_C473: 37 a_213 - b_21_213 = 36
_C474: a_213 - a_305 >= 0
_C475: a_214 - b_21_214 = 0
_C476: a_215 - b_21_215 = 0
_C477: a_216 - b_21_216 = 0
_C478: 37 a_217 - b_86_217 = 36
_C479: a_217 - a_305 >= 0
_C48: a_51 = 0.0434782608696
_C480: a_218 - b_86_218 = 0
_C481: a_219 - b_86_219 = 0
_C482: a_220 - b_86_220 = 0
_C483: a_221 - b_86_221 = 0
_C484: a_222 - b_86_222 = 0
_C485: a_223 - b_86_223 = 0
_C486: a_224 - b_86_224 = 0
_C487: a_225 - b_86_225 = 0
_C488: a_226 - b_86_226 = 0
_C489: a_227 - b_86_227 = 0
_C49: a_52 = 0.0434782608696
_C490: a_228 - b_86_228 = 0
_C491: a_229 - b_86_229 = 0
_C492: a_230 - b_86_230 = 0
_C493: a_231 - b_86_231 = 0
_C494: a_232 - b_86_232 = 0
_C495: a_233 - b_86_233 = 0
_C496: a_234 - b_86_234 = 0
_C497: a_235 - b_86_235 = 0
_C498: a_236 - b_86_236 = 0
_C499: a_237 - b_86_237 = 0
_C5: a_5 = 0.0434782608696
_C50: a_53 = 0.0434782608696
_C500: 37 a_238 - b_23_238 = 36
_C501: a_238 - a_305 >= 0
_C502: a_239 - b_23_239 = 0
_C503: 37 a_240 - b_56_240 = 36
_C504: a_240 - a_305 >= 0
_C505: a_241 - b_56_241 = 0
_C506: a_242 - b_56_242 = 0
_C507: a_243 - b_56_243 = 0
_C508: a_244 - b_56_244 = 0
_C509: a_245 - b_56_245 = 0
_C51: a_54 = 0.0434782608696
_C510: a_246 - b_56_246 = 0
_C511: a_247 - b_56_247 = 0
_C512: a_248 - b_56_248 = 0
_C513: a_249 - b_56_249 = 0
_C514: a_250 - b_56_250 = 0
_C515: a_251 - b_56_251 = 0
_C516: a_252 - b_56_252 = 0
_C517: a_253 - b_56_253 = 0
_C518: a_254 - b_56_254 = 0
_C519: a_255 - b_56_255 = 0
_C52: a_55 = 0.0434782608696
_C520: a_256 - b_56_256 = 0
_C521: a_257 - b_56_257 = 0
_C522: 37 a_258 - b_26_258 = 36
_C523: a_258 - a_305 >= 0
_C524: a_259 - b_26_259 = 0
_C525: a_260 - b_26_260 = 0
_C526: a_261 - b_26_261 = 0
_C527: a_262 - b_26_262 = 0
_C528: a_263 - b_26_263 = 0
_C529: a_264 - b_26_264 = 0
_C53: a_56 = 0.0434782608696
_C530: a_264 - a_305 >= 0
_C531: a_265 - b_26_265 = 0
_C532: a_265 - a_305 >= 0
_C533: a_266 - b_26_266 = 0
_C534: a_266 - a_305 >= 0
_C535: a_267 - b_26_267 = 0
_C536: a_267 - a_305 >= 0
_C537: a_268 - b_26_268 = 0
_C538: a_268 - a_305 >= 0
_C539: a_269 - b_26_269 = 0
_C54: a_57 = 0.0434782608696
_C540: a_269 - a_305 >= 0
_C541: a_270 - b_26_270 = 0
_C542: a_270 - a_305 >= 0
_C543: a_271 - b_26_271 = 0
_C544: a_271 - a_305 >= 0
_C545: a_272 - b_26_272 = 0
_C546: a_272 - a_305 >= 0
_C547: a_273 - b_26_273 = 0
_C548: a_273 - a_305 >= 0
_C549: a_274 - b_26_274 = 0
_C55: a_58 = 0.0434782608696
_C550: a_274 - a_305 >= 0
_C551: a_275 - b_26_275 = 0
_C552: a_275 - a_305 >= 0
_C553: a_276 - b_26_276 = 0
_C554: a_276 - a_305 >= 0
_C555: a_277 - b_26_277 = 0
_C556: a_277 - a_305 >= 0
_C557: a_278 - b_26_278 = 0
_C558: a_278 - a_305 >= 0
_C559: a_279 - b_26_279 = 0
_C56: a_59 = 0.0434782608696
_C560: a_279 - a_305 >= 0
_C561: 37 a_280 - b_27_280 = 36
_C562: a_280 - a_305 >= 0
_C563: a_281 - b_27_281 = 0
_C564: a_281 - a_305 >= 0
_C565: a_282 - b_27_282 = 0
_C566: a_282 - a_305 >= 0
_C567: a_283 - b_27_283 = 0
_C568: a_283 - a_305 >= 0
_C569: a_284 - b_27_284 = 0
_C57: a_60 = 0.0434782608696
_C570: a_284 - a_305 >= 0
_C571: a_285 - b_27_285 = 0
_C572: a_285 - a_305 >= 0
_C573: a_286 - b_27_286 = 0
_C574: a_286 - a_305 >= 0
_C575: a_287 - b_27_287 = 0
_C576: a_287 - a_305 >= 0
_C577: a_288 - b_27_288 = 0
_C578: a_288 - a_305 >= 0
_C579: a_289 - b_27_289 = 0
_C58: a_61 = 0.0434782608696
_C580: a_289 - a_305 >= 0
_C581: a_290 - b_27_290 = 0
_C582: a_290 - a_305 >= 0
_C583: a_291 - b_27_291 = 0
_C584: a_291 - a_305 >= 0
_C585: a_292 - b_27_292 = 0
_C586: a_292 - a_305 >= 0
_C587: a_293 - b_27_293 = 0
_C588: a_293 - a_305 >= 0
_C589: a_294 - b_27_294 = 0
_C59: a_62 = 0.0434782608696
_C590: a_294 - a_305 >= 0
_C591: a_295 - b_27_295 = 0
_C592: a_295 - a_305 >= 0
_C593: a_296 - b_27_296 = 0
_C594: a_296 - a_305 >= 0
_C595: a_297 - b_27_297 = 0
_C596: a_297 - a_305 >= 0
_C597: a_298 - b_27_298 = 0
_C598: a_298 - a_305 >= 0
_C599: a_299 - b_27_299 = 0
_C6: a_6 = 0.0434782608696
_C60: a_63 = 0.0434782608696
_C600: a_299 - a_305 >= 0
_C601: a_300 - b_27_300 = 0
_C602: a_300 - a_305 >= 0
_C603: a_301 - b_27_301 = 0
_C604: a_301 - a_305 >= 0
_C605: 37 a_302 - b_90_302 = 36
_C606: a_302 - a_305 >= 0
_C607: a_303 - b_90_303 = 0
_C608: a_303 - a_305 >= 0
_C609: a_304 - b_90_304 = 0
_C61: a_64 = 0.0434782608696
_C610: a_304 - a_305 >= 0
_C611: a_305 - b_90_305 = 0
_C612: 0 a_305 >= 0
_C613: a_306 - b_90_306 = 0
_C614: - a_305 + a_306 >= 0
_C615: a_307 - b_90_307 = 0
_C616: - a_305 + a_307 >= 0
_C617: a_308 - b_90_308 = 0
_C618: - a_305 + a_308 >= 0
_C619: a_309 - b_90_309 = 0
_C62: a_65 = 0.0434782608696
_C620: - a_305 + a_309 >= 0
_C621: a_310 - b_90_310 = 0
_C622: - a_305 + a_310 >= 0
_C623: a_311 - b_90_311 = 0
_C624: - a_305 + a_311 >= 0
_C625: a_312 - b_90_312 = 0
_C626: - a_305 + a_312 >= 0
_C627: a_313 - b_90_313 = 0
_C628: - a_305 + a_313 >= 0
_C629: a_314 - b_90_314 = 0
_C63: a_66 = 0.0434782608696
_C630: - a_305 + a_314 >= 0
_C631: a_315 - b_90_315 = 0
_C632: - a_305 + a_315 >= 0
_C633: a_316 - b_90_316 = 0
_C634: - a_305 + a_316 >= 0
_C635: a_317 - b_90_317 = 0
_C636: - a_305 + a_317 >= 0
_C637: a_318 - b_90_318 = 0
_C638: - a_305 + a_318 >= 0
_C639: a_319 - b_90_319 = 0
_C64: a_68 = 0.0434782608696
_C640: - a_305 + a_319 >= 0
_C641: a_320 - b_90_320 = 0
_C642: - a_305 + a_320 >= 0
_C643: a_321 - b_90_321 = 0
_C644: - a_305 + a_321 >= 0
_C645: a_322 - b_90_322 = 0
_C646: - a_305 + a_322 >= 0
_C647: a_323 - b_90_323 = 0
_C648: - a_305 + a_323 >= 0
_C649: 37 a_324 - b_85_324 = 36
_C65: a_69 = 0.0434782608696
_C650: - a_305 + a_324 >= 0
_C651: a_325 - b_85_325 = 0
_C652: - a_305 + a_325 >= 0
_C653: a_326 - b_85_326 = 0
_C654: - a_305 + a_326 >= 0
_C655: a_327 - b_85_327 = 0
_C656: - a_305 + a_327 >= 0
_C657: a_328 - b_85_328 = 0
_C658: - a_305 + a_328 >= 0
_C659: a_329 - b_85_329 = 0
_C66: a_70 = 0.0434782608696
_C660: - a_305 + a_329 >= 0
_C661: a_330 - b_85_330 = 0
_C662: - a_305 + a_330 >= 0
_C663: a_331 - b_85_331 = 0
_C664: - a_305 + a_331 >= 0
_C665: a_332 - b_85_332 = 0
_C666: - a_305 + a_332 >= 0
_C667: a_333 - b_85_333 = 0
_C668: - a_305 + a_333 >= 0
_C669: a_334 - b_85_334 = 0
_C67: a_71 = 0.0434782608696
_C670: - a_305 + a_334 >= 0
_C671: a_335 - b_85_335 = 0
_C672: - a_305 + a_335 >= 0
_C673: a_336 - b_85_336 = 0
_C674: - a_305 + a_336 >= 0
_C675: a_337 - b_85_337 = 0
_C676: - a_305 + a_337 >= 0
_C677: a_338 - b_85_338 = 0
_C678: - a_305 + a_338 >= 0
_C679: a_339 - b_85_339 = 0
_C68: a_72 = 0.0434782608696
_C680: - a_305 + a_339 >= 0
_C681: a_340 - b_85_340 = 0
_C682: - a_305 + a_340 >= 0
_C683: a_341 - b_85_341 = 0
_C684: - a_305 + a_341 >= 0
_C685: a_342 - b_85_342 = 0
_C686: - a_305 + a_342 >= 0
_C687: a_343 - b_85_343 = 0
_C688: - a_305 + a_343 >= 0
_C689: a_344 - b_85_344 = 0
_C69: a_73 = 0.0434782608696
_C690: - a_305 + a_344 >= 0
_C691: b_0_0 + b_0_1 + b_0_10 + b_0_11 + b_0_12 + b_0_13 + b_0_14 + b_0_15
 + b_0_16 + b_0_17 + b_0_18 + b_0_19 + b_0_2 + b_0_20 + b_0_21 + b_0_3 + b_0_4
 + b_0_5 + b_0_6 + b_0_7 + b_0_8 + b_0_9 <= 1
_C692: b_1_22 + b_1_23 + b_1_24 + b_1_25 + b_1_26 + b_1_27 + b_1_28 + b_1_29
 + b_1_30 + b_1_31 + b_1_32 + b_1_33 + b_1_34 + b_1_35 + b_1_36 + b_1_37
 + b_1_38 + b_1_39 + b_1_40 + b_1_41 + b_1_42 + b_1_43 + b_1_44 + b_1_45 <= 1
_C693: b_34_46 + b_34_47 + b_34_48 + b_34_49 + b_34_50 + b_34_51 + b_34_52
 + b_34_53 + b_34_54 + b_34_55 + b_34_56 + b_34_57 + b_34_58 + b_34_59
 + b_34_60 + b_34_61 + b_34_62 + b_34_63 + b_34_64 + b_34_65 + b_34_66 <= 1
_C694: b_75_67 + b_75_68 + b_75_69 + b_75_70 + b_75_71 + b_75_72 + b_75_73
 + b_75_74 + b_75_75 + b_75_76 + b_75_77 + b_75_78 + b_75_79 + b_75_80
 + b_75_81 + b_75_82 + b_75_83 + b_75_84 + b_75_85 + b_75_86 <= 1
_C695: b_68_87 + b_68_88 + b_68_89 + b_68_90 + b_68_91 + b_68_92 + b_68_93
 + b_68_94 + b_68_95 + b_68_96 + b_68_97 + b_68_98 <= 1
_C696: b_65_100 + b_65_101 + b_65_102 + b_65_103 + b_65_104 + b_65_105
 + b_65_106 + b_65_107 + b_65_108 + b_65_109 + b_65_110 + b_65_111 + b_65_112
 + b_65_113 + b_65_114 + b_65_115 + b_65_116 + b_65_117 + b_65_99 <= 1
_C697: b_32_118 + b_32_119 + b_32_120 + b_32_121 + b_32_122 + b_32_123
 + b_32_124 + b_32_125 <= 1
_C698: b_41_126 + b_41_127 + b_41_128 + b_41_129 + b_41_130 + b_41_131
 + b_41_132 + b_41_133 <= 1
_C699: b_55_134 + b_55_135 + b_55_136 + b_55_137 + b_55_138 + b_55_139
 + b_55_140 + b_55_141 + b_55_142 + b_55_143 + b_55_144 + b_55_145 + b_55_146
 + b_55_147 + b_55_148 + b_55_149 + b_55_150 + b_55_151 + b_55_152 + b_55_153
 + b_55_154 <= 1
_C7: a_7 = 0.0434782608696
_C70: a_74 = 0.0434782608696
_C700: b_44_155 + b_44_156 + b_44_157 + b_44_158 + b_44_159 + b_44_160
 + b_44_161 + b_44_162 + b_44_163 + b_44_164 + b_44_165 + b_44_166 + b_44_167
 + b_44_168 + b_44_169 + b_44_170 + b_44_171 + b_44_172 + b_44_173 <= 1
_C701: b_78_174 + b_78_175 + b_78_176 + b_78_177 + b_78_178 + b_78_179
 + b_78_180 + b_78_181 + b_78_182 + b_78_183 + b_78_184 + b_78_185 + b_78_186
 + b_78_187 + b_78_188 + b_78_189 + b_78_190 + b_78_191 + b_78_192 + b_78_193
 <= 1
_C702: b_51_194 + b_51_195 + b_51_196 + b_51_197 + b_51_198 + b_51_199
 + b_51_200 + b_51_201 + b_51_202 + b_51_203 + b_51_204 + b_51_205 + b_51_206
 + b_51_207 + b_51_208 + b_51_209 + b_51_210 + b_51_211 + b_51_212 <= 1
_C703: b_21_213 + b_21_214 + b_21_215 + b_21_216 <= 1
_C704: b_86_217 + b_86_218 + b_86_219 + b_86_220 + b_86_221 + b_86_222
 + b_86_223 + b_86_224 + b_86_225 + b_86_226 + b_86_227 + b_86_228 + b_86_229
 + b_86_230 + b_86_231 + b_86_232 + b_86_233 + b_86_234 + b_86_235 + b_86_236
 + b_86_237 <= 1
_C705: b_23_238 + b_23_239 <= 1
_C706: b_56_240 + b_56_241 + b_56_242 + b_56_243 + b_56_244 + b_56_245
 + b_56_246 + b_56_247 + b_56_248 + b_56_249 + b_56_250 + b_56_251 + b_56_252
 + b_56_253 + b_56_254 + b_56_255 + b_56_256 + b_56_257 <= 1
_C707: b_26_258 + b_26_259 + b_26_260 + b_26_261 + b_26_262 + b_26_263
 + b_26_264 + b_26_265 + b_26_266 + b_26_267 + b_26_268 + b_26_269 + b_26_270
 + b_26_271 + b_26_272 + b_26_273 + b_26_274 + b_26_275 + b_26_276 + b_26_277
 + b_26_278 + b_26_279 <= 1
_C708: b_27_280 + b_27_281 + b_27_282 + b_27_283 + b_27_284 + b_27_285
 + b_27_286 + b_27_287 + b_27_288 + b_27_289 + b_27_290 + b_27_291 + b_27_292
 + b_27_293 + b_27_294 + b_27_295 + b_27_296 + b_27_297 + b_27_298 + b_27_299
 + b_27_300 + b_27_301 <= 1
_C709: b_90_302 + b_90_303 + b_90_304 + b_90_305 + b_90_306 + b_90_307
 + b_90_308 + b_90_309 + b_90_310 + b_90_311 + b_90_312 + b_90_313 + b_90_314
 + b_90_315 + b_90_316 + b_90_317 + b_90_318 + b_90_319 + b_90_320 + b_90_321
 + b_90_322 + b_90_323 <= 1
_C71: a_75 = 0.0434782608696
_C710: b_85_324 + b_85_325 + b_85_326 + b_85_327 + b_85_328 + b_85_329
 + b_85_330 + b_85_331 + b_85_332 + b_85_333 + b_85_334 + b_85_335 + b_85_336
 + b_85_337 + b_85_338 + b_85_339 + b_85_340 + b_85_341 + b_85_342 + b_85_343
 + b_85_344 <= 1
_C72: a_76 = 0.0434782608696
_C73: a_77 = 0.0434782608696
_C74: a_78 = 0.0434782608696
_C75: a_79 = 0.0434782608696
_C76: a_80 = 0.0434782608696
_C77: a_81 = 0.0434782608696
_C78: a_82 = 0.0434782608696
_C79: a_83 = 0.0434782608696
_C8: a_8 = 0.0434782608696
_C80: a_84 = 0.0434782608696
_C81: a_85 = 0.0434782608696
_C82: a_86 = 0.0434782608696
_C83: a_88 = 0.0434782608696
_C84: a_89 = 0.0434782608696
_C85: a_90 = 0.0434782608696
_C86: a_91 = 0.0434782608696
_C87: a_92 = 0.0434782608696
_C88: a_93 = 0.0434782608696
_C89: a_94 = 0.0434782608696
_C9: a_9 = 0.0434782608696
_C90: a_95 = 0.0434782608696
_C91: a_96 = 0.0434782608696
_C92: a_97 = 0.0434782608696
_C93: a_98 = 0.0434782608696
_C94: a_100 = 0.0434782608696
_C95: a_101 = 0.0434782608696
_C96: a_102 = 0.0434782608696
_C97: a_103 = 0.0434782608696
_C98: a_104 = 0.0434782608696
_C99: a_105 = 0.0434782608696
Bounds
a_0 <= 1
a_1 <= 1
a_10 <= 1
a_100 <= 1
a_101 <= 1
a_102 <= 1
a_103 <= 1
a_104 <= 1
a_105 <= 1
a_106 <= 1
a_107 <= 1
a_108 <= 1
a_109 <= 1
a_11 <= 1
a_110 <= 1
a_111 <= 1
a_112 <= 1
a_113 <= 1
a_114 <= 1
a_115 <= 1
a_116 <= 1
a_117 <= 1
a_118 <= 1
a_119 <= 1
a_12 <= 1
a_120 <= 1
a_121 <= 1
a_122 <= 1
a_123 <= 1
a_124 <= 1
a_125 <= 1
a_126 <= 1
a_127 <= 1
a_128 <= 1
a_129 <= 1
a_13 <= 1
a_130 <= 1
a_131 <= 1
a_132 <= 1
a_133 <= 1
a_134 <= 1
a_135 <= 1
a_136 <= 1
a_137 <= 1
a_138 <= 1
a_139 <= 1
a_14 <= 1
a_140 <= 1
a_141 <= 1
a_142 <= 1
a_143 <= 1
a_144 <= 1
a_145 <= 1
a_146 <= 1
a_147 <= 1
a_148 <= 1
a_149 <= 1
a_15 <= 1
a_150 <= 1
a_151 <= 1
a_152 <= 1
a_153 <= 1
a_154 <= 1
a_155 <= 1
a_156 <= 1
a_157 <= 1
a_158 <= 1
a_159 <= 1
a_16 <= 1
a_160 <= 1
a_161 <= 1
a_162 <= 1
a_163 <= 1
a_164 <= 1
a_165 <= 1
a_166 <= 1
a_167 <= 1
a_168 <= 1
a_169 <= 1
a_17 <= 1
a_170 <= 1
a_171 <= 1
a_172 <= 1
a_173 <= 1
a_174 <= 1
a_175 <= 1
a_176 <= 1
a_177 <= 1
a_178 <= 1
a_179 <= 1
a_18 <= 1
a_180 <= 1
a_181 <= 1
a_182 <= 1
a_183 <= 1
a_184 <= 1
a_185 <= 1
a_186 <= 1
a_187 <= 1
a_188 <= 1
a_189 <= 1
a_19 <= 1
a_190 <= 1
a_191 <= 1
a_192 <= 1
a_193 <= 1
a_194 <= 1
a_195 <= 1
a_196 <= 1
a_197 <= 1
a_198 <= 1
a_199 <= 1
a_2 <= 1
a_20 <= 1
a_200 <= 1
a_201 <= 1
a_202 <= 1
a_203 <= 1
a_204 <= 1
a_205 <= 1
a_206 <= 1
a_207 <= 1
a_208 <= 1
a_209 <= 1
a_21 <= 1
a_210 <= 1
a_211 <= 1
a_212 <= 1
a_213 <= 1
a_214 <= 1
a_215 <= 1
a_216 <= 1
a_217 <= 1
a_218 <= 1
a_219 <= 1
a_22 <= 1
a_220 <= 1
a_221 <= 1
a_222 <= 1
a_223 <= 1
a_224 <= 1
a_225 <= 1
a_226 <= 1
a_227 <= 1
a_228 <= 1
a_229 <= 1
a_23 <= 1
a_230 <= 1
a_231 <= 1
a_232 <= 1
a_233 <= 1
a_234 <= 1
a_235 <= 1
a_236 <= 1
a_237 <= 1
a_238 <= 1
a_239 <= 1
a_24 <= 1
a_240 <= 1
a_241 <= 1
a_242 <= 1
a_243 <= 1
a_244 <= 1
a_245 <= 1
a_246 <= 1
a_247 <= 1
a_248 <= 1
a_249 <= 1
a_25 <= 1
a_250 <= 1
a_251 <= 1
a_252 <= 1
a_253 <= 1
a_254 <= 1
a_255 <= 1
a_256 <= 1
a_257 <= 1
a_258 <= 1
a_259 <= 1
a_26 <= 1
a_260 <= 1
a_261 <= 1
a_262 <= 1
a_263 <= 1
a_264 <= 1
a_265 <= 1
a_266 <= 1
a_267 <= 1
a_268 <= 1
a_269 <= 1
a_27 <= 1
a_270 <= 1
a_271 <= 1
a_272 <= 1
a_273 <= 1
a_274 <= 1
a_275 <= 1
a_276 <= 1
a_277 <= 1
a_278 <= 1
a_279 <= 1
a_28 <= 1
a_280 <= 1
a_281 <= 1
a_282 <= 1
a_283 <= 1
a_284 <= 1
a_285 <= 1
a_286 <= 1
a_287 <= 1
a_288 <= 1
a_289 <= 1
a_29 <= 1
a_290 <= 1
a_291 <= 1
a_292 <= 1
a_293 <= 1
a_294 <= 1
a_295 <= 1
a_296 <= 1
a_297 <= 1
a_298 <= 1
a_299 <= 1
a_3 <= 1
a_30 <= 1
a_300 <= 1
a_301 <= 1
a_302 <= 1
a_303 <= 1
a_304 <= 1
a_305 <= 1
a_306 <= 1
a_307 <= 1
a_308 <= 1
a_309 <= 1
a_31 <= 1
a_310 <= 1
a_311 <= 1
a_312 <= 1
a_313 <= 1
a_314 <= 1
a_315 <= 1
a_316 <= 1
a_317 <= 1
a_318 <= 1
a_319 <= 1
a_32 <= 1
a_320 <= 1
a_321 <= 1
a_322 <= 1
a_323 <= 1
a_324 <= 1
a_325 <= 1
a_326 <= 1
a_327 <= 1
a_328 <= 1
a_329 <= 1
a_33 <= 1
a_330 <= 1
a_331 <= 1
a_332 <= 1
a_333 <= 1
a_334 <= 1
a_335 <= 1
a_336 <= 1
a_337 <= 1
a_338 <= 1
a_339 <= 1
a_34 <= 1
a_340 <= 1
a_341 <= 1
a_342 <= 1
a_343 <= 1
a_344 <= 1
a_35 <= 1
a_36 <= 1
a_37 <= 1
a_38 <= 1
a_39 <= 1
a_4 <= 1
a_40 <= 1
a_41 <= 1
a_42 <= 1
a_43 <= 1
a_44 <= 1
a_45 <= 1
a_46 <= 1
a_47 <= 1
a_48 <= 1
a_49 <= 1
a_5 <= 1
a_50 <= 1
a_51 <= 1
a_52 <= 1
a_53 <= 1
a_54 <= 1
a_55 <= 1
a_56 <= 1
a_57 <= 1
a_58 <= 1
a_59 <= 1
a_6 <= 1
a_60 <= 1
a_61 <= 1
a_62 <= 1
a_63 <= 1
a_64 <= 1
a_65 <= 1
a_66 <= 1
a_67 <= 1
a_68 <= 1
a_69 <= 1
a_7 <= 1
a_70 <= 1
a_71 <= 1
a_72 <= 1
a_73 <= 1
a_74 <= 1
a_75 <= 1
a_76 <= 1
a_77 <= 1
a_78 <= 1
a_79 <= 1
a_8 <= 1
a_80 <= 1
a_81 <= 1
a_82 <= 1
a_83 <= 1
a_84 <= 1
a_85 <= 1
a_86 <= 1
a_87 <= 1
a_88 <= 1
a_89 <= 1
a_9 <= 1
a_90 <= 1
a_91 <= 1
a_92 <= 1
a_93 <= 1
a_94 <= 1
a_95 <= 1
a_96 <= 1
a_97 <= 1
a_98 <= 1
a_99 <= 1
b_0_0 <= 1
b_0_1 <= 1
b_0_10 <= 1
b_0_11 <= 1
b_0_12 <= 1
b_0_13 <= 1
b_0_14 <= 1
b_0_15 <= 1
b_0_16 <= 1
b_0_17 <= 1
b_0_18 <= 1
b_0_19 <= 1
b_0_2 <= 1
b_0_20 <= 1
b_0_21 <= 1
b_0_3 <= 1
b_0_4 <= 1
b_0_5 <= 1
b_0_6 <= 1
b_0_7 <= 1
b_0_8 <= 1
b_0_9 <= 1
b_1_22 <= 1
b_1_23 <= 1
b_1_24 <= 1
b_1_25 <= 1
b_1_26 <= 1
b_1_27 <= 1
b_1_28 <= 1
b_1_29 <= 1
b_1_30 <= 1
b_1_31 <= 1
b_1_32 <= 1
b_1_33 <= 1
b_1_34 <= 1
b_1_35 <= 1
b_1_36 <= 1
b_1_37 <= 1
b_1_38 <= 1
b_1_39 <= 1
b_1_40 <= 1
b_1_41 <= 1
b_1_42 <= 1
b_1_43 <= 1
b_1_44 <= 1
b_1_45 <= 1
b_21_213 <= 1
b_21_214 <= 1
b_21_215 <= 1
b_21_216 <= 1
b_23_238 <= 1
b_23_239 <= 1
b_26_258 <= 1
b_26_259 <= 1
b_26_260 <= 1
b_26_261 <= 1
b_26_262 <= 1
b_26_263 <= 1
b_26_264 <= 1
b_26_265 <= 1
b_26_266 <= 1
b_26_267 <= 1
b_26_268 <= 1
b_26_269 <= 1
b_26_270 <= 1
b_26_271 <= 1
b_26_272 <= 1
b_26_273 <= 1
b_26_274 <= 1
b_26_275 <= 1
b_26_276 <= 1
b_26_277 <= 1
b_26_278 <= 1
b_26_279 <= 1
b_27_280 <= 1
b_27_281 <= 1
b_27_282 <= 1
b_27_283 <= 1
b_27_284 <= 1
b_27_285 <= 1
b_27_286 <= 1
b_27_287 <= 1
b_27_288 <= 1
b_27_289 <= 1
b_27_290 <= 1
b_27_291 <= 1
b_27_292 <= 1
b_27_293 <= 1
b_27_294 <= 1
b_27_295 <= 1
b_27_296 <= 1
b_27_297 <= 1
b_27_298 <= 1
b_27_299 <= 1
b_27_300 <= 1
b_27_301 <= 1
b_32_118 <= 1
b_32_119 <= 1
b_32_120 <= 1
b_32_121 <= 1
b_32_122 <= 1
b_32_123 <= 1
b_32_124 <= 1
b_32_125 <= 1
b_34_46 <= 1
b_34_47 <= 1
b_34_48 <= 1
b_34_49 <= 1
b_34_50 <= 1
b_34_51 <= 1
b_34_52 <= 1
b_34_53 <= 1
b_34_54 <= 1
b_34_55 <= 1
b_34_56 <= 1
b_34_57 <= 1
b_34_58 <= 1
b_34_59 <= 1
b_34_60 <= 1
b_34_61 <= 1
b_34_62 <= 1
b_34_63 <= 1
b_34_64 <= 1
b_34_65 <= 1
b_34_66 <= 1
b_41_126 <= 1
b_41_127 <= 1
b_41_128 <= 1
b_41_129 <= 1
b_41_130 <= 1
b_41_131 <= 1
b_41_132 <= 1
b_41_133 <= 1
b_44_155 <= 1
b_44_156 <= 1
b_44_157 <= 1
b_44_158 <= 1
b_44_159 <= 1
b_44_160 <= 1
b_44_161 <= 1
b_44_162 <= 1
b_44_163 <= 1
b_44_164 <= 1
b_44_165 <= 1
b_44_166 <= 1
b_44_167 <= 1
b_44_168 <= 1
b_44_169 <= 1
b_44_170 <= 1
b_44_171 <= 1
b_44_172 <= 1
b_44_173 <= 1
b_51_194 <= 1
b_51_195 <= 1
b_51_196 <= 1
b_51_197 <= 1
b_51_198 <= 1
b_51_199 <= 1
b_51_200 <= 1
b_51_201 <= 1
b_51_202 <= 1
b_51_203 <= 1
b_51_204 <= 1
b_51_205 <= 1
b_51_206 <= 1
b_51_207 <= 1
b_51_208 <= 1
b_51_209 <= 1
b_51_210 <= 1
b_51_211 <= 1
b_51_212 <= 1
b_55_134 <= 1
b_55_135 <= 1
b_55_136 <= 1
b_55_137 <= 1
b_55_138 <= 1
b_55_139 <= 1
b_55_140 <= 1
b_55_141 <= 1
b_55_142 <= 1
b_55_143 <= 1
b_55_144 <= 1
b_55_145 <= 1
b_55_146 <= 1
b_55_147 <= 1
b_55_148 <= 1
b_55_149 <= 1
b_55_150 <= 1
b_55_151 <= 1
b_55_152 <= 1
b_55_153 <= 1
b_55_154 <= 1
b_56_240 <= 1
b_56_241 <= 1
b_56_242 <= 1
b_56_243 <= 1
b_56_244 <= 1
b_56_245 <= 1
b_56_246 <= 1
b_56_247 <= 1
b_56_248 <= 1
b_56_249 <= 1
b_56_250 <= 1
b_56_251 <= 1
b_56_252 <= 1
b_56_253 <= 1
b_56_254 <= 1
b_56_255 <= 1
b_56_256 <= 1
b_56_257 <= 1
b_65_100 <= 1
b_65_101 <= 1
b_65_102 <= 1
b_65_103 <= 1
b_65_104 <= 1
b_65_105 <= 1
b_65_106 <= 1
b_65_107 <= 1
b_65_108 <= 1
b_65_109 <= 1
b_65_110 <= 1
b_65_111 <= 1
b_65_112 <= 1
b_65_113 <= 1
b_65_114 <= 1
b_65_115 <= 1
b_65_116 <= 1
b_65_117 <= 1
b_65_99 <= 1
b_68_87 <= 1
b_68_88 <= 1
b_68_89 <= 1
b_68_90 <= 1
b_68_91 <= 1
b_68_92 <= 1
b_68_93 <= 1
b_68_94 <= 1
b_68_95 <= 1
b_68_96 <= 1
b_68_97 <= 1
b_68_98 <= 1
b_75_67 <= 1
b_75_68 <= 1
b_75_69 <= 1
b_75_70 <= 1
b_75_71 <= 1
b_75_72 <= 1
b_75_73 <= 1
b_75_74 <= 1
b_75_75 <= 1
b_75_76 <= 1
b_75_77 <= 1
b_75_78 <= 1
b_75_79 <= 1
b_75_80 <= 1
b_75_81 <= 1
b_75_82 <= 1
b_75_83 <= 1
b_75_84 <= 1
b_75_85 <= 1
b_75_86 <= 1
b_78_174 <= 1
b_78_175 <= 1
b_78_176 <= 1
b_78_177 <= 1
b_78_178 <= 1
b_78_179 <= 1
b_78_180 <= 1
b_78_181 <= 1
b_78_182 <= 1
b_78_183 <= 1
b_78_184 <= 1
b_78_185 <= 1
b_78_186 <= 1
b_78_187 <= 1
b_78_188 <= 1
b_78_189 <= 1
b_78_190 <= 1
b_78_191 <= 1
b_78_192 <= 1
b_78_193 <= 1
b_85_324 <= 1
b_85_325 <= 1
b_85_326 <= 1
b_85_327 <= 1
b_85_328 <= 1
b_85_329 <= 1
b_85_330 <= 1
b_85_331 <= 1
b_85_332 <= 1
b_85_333 <= 1
b_85_334 <= 1
b_85_335 <= 1
b_85_336 <= 1
b_85_337 <= 1
b_85_338 <= 1
b_85_339 <= 1
b_85_340 <= 1
b_85_341 <= 1
b_85_342 <= 1
b_85_343 <= 1
b_85_344 <= 1
b_86_217 <= 1
b_86_218 <= 1
b_86_219 <= 1
b_86_220 <= 1
b_86_221 <= 1
b_86_222 <= 1
b_86_223 <= 1
b_86_224 <= 1
b_86_225 <= 1
b_86_226 <= 1
b_86_227 <= 1
b_86_228 <= 1
b_86_229 <= 1
b_86_230 <= 1
b_86_231 <= 1
b_86_232 <= 1
b_86_233 <= 1
b_86_234 <= 1
b_86_235 <= 1
b_86_236 <= 1
b_86_237 <= 1
b_90_302 <= 1
b_90_303 <= 1
b_90_304 <= 1
b_90_305 <= 1
b_90_306 <= 1
b_90_307 <= 1
b_90_308 <= 1
b_90_309 <= 1
b_90_310 <= 1
b_90_311 <= 1
b_90_312 <= 1
b_90_313 <= 1
b_90_314 <= 1
b_90_315 <= 1
b_90_316 <= 1
b_90_317 <= 1
b_90_318 <= 1
b_90_319 <= 1
b_90_320 <= 1
b_90_321 <= 1
b_90_322 <= 1
b_90_323 <= 1
End
